outputs/case_254.model.txt
revoke_meeting_resolution = False
suspend_partial_business = False
restrict_investment = False
order_asset_disposal_or_transfer = False
order_branch_closure = False
order_manager_dismissal_or_suspension = False
order_director_supervisor_dismissal_or_suspension = False
order_reserve_provision = False
other_necessary_measures = False
risk_disclosure_specified = True
internal_control_implemented = True
control_procedures = True
audit_procedures_established = True
risk_assessment_report_updated = True
dedicated_personnel_assigned = True
other_required_matters_established = True
training_held = True
internal_control_executed = True
law_or_regulation_violated = False
compliance_ok = True
beneficiary_transfer_restriction_specified = True
law_or_order_violated = False
violation = False
penalty = False
internal_control_established = True
penalty_measures = False
contract_requirements_met = True
operation_scope_specified = True
client_informed = True